p cnf 289 1
289 0
w 1 0.268268
w 2 1 0.563516
w 2 -1 0.639634
w 3 2 0.604656
w 3 -2 0.294662
w 4 3 1
w 4 -3 0
w 5 4 1
w 5 -4 0
w 6 5 1
w 6 -5 0
w 7 6 0.33519
w 7 -6 0.317615
w 8 7 0
w 8 -7 1
w 9 8 0.4262
w 9 -8 0.259634
w 10 9 0
w 10 -9 1
w 11 10 1
w 11 -10 0
w 12 11 0
w 12 -11 1
w 13 12 0.314923
w 13 -12 0.173488
w 14 13 0.583191
w 14 -13 0.955447
w 15 14 0
w 15 -14 1
w 16 15 0.0555673
w 16 -15 0.517487
w 17 16 1
w 17 -16 0
w 18 1 0
w 18 -1 1
w 19 18 2 0.470685
w 19 18 -2 0.293006
w 19 -18 2 0.33209
w 19 -18 -2 0.7883
w 20 19 3 0
w 20 19 -3 0
w 20 -19 3 1
w 20 -19 -3 0
w 21 20 4 0.953724
w 21 20 -4 0.761424
w 21 -20 4 0.345434
w 21 -20 -4 0.797441
w 22 21 5 1
w 22 21 -5 1
w 22 -21 5 1
w 22 -21 -5 0
w 23 22 6 0.953533
w 23 22 -6 0.466374
w 23 -22 6 0.797139
w 23 -22 -6 0.00910025
w 24 23 7 0.849852
w 24 23 -7 0.669211
w 24 -23 7 0.0837094
w 24 -23 -7 0.2586
w 25 24 8 1
w 25 24 -8 1
w 25 -24 8 0
w 25 -24 -8 1
w 26 25 9 0
w 26 25 -9 0
w 26 -25 9 1
w 26 -25 -9 1
w 27 26 10 0.174338
w 27 26 -10 0.69822
w 27 -26 10 0.53677
w 27 -26 -10 0.519772
w 28 27 11 1
w 28 27 -11 0
w 28 -27 11 0
w 28 -27 -11 0
w 29 28 12 0
w 29 28 -12 0
w 29 -28 12 0
w 29 -28 -12 1
w 30 29 13 1
w 30 29 -13 1
w 30 -29 13 0
w 30 -29 -13 1
w 31 30 14 1
w 31 30 -14 1
w 31 -30 14 0
w 31 -30 -14 0
w 32 31 15 0.0611884
w 32 31 -15 0.192305
w 32 -31 15 0.870734
w 32 -31 -15 0.357832
w 33 32 16 0.64608
w 33 32 -16 0.53217
w 33 -32 16 0.635022
w 33 -32 -16 0.182849
w 34 33 17 1
w 34 33 -17 1
w 34 -33 17 0
w 34 -33 -17 0
w 35 18 0.655752
w 35 -18 0.99024
w 36 35 19 0
w 36 35 -19 0
w 36 -35 19 1
w 36 -35 -19 1
w 37 36 20 1
w 37 36 -20 1
w 37 -36 20 0
w 37 -36 -20 1
w 38 37 21 1
w 38 37 -21 0
w 38 -37 21 1
w 38 -37 -21 1
w 39 38 22 1
w 39 38 -22 1
w 39 -38 22 1
w 39 -38 -22 0
w 40 39 23 1
w 40 39 -23 0
w 40 -39 23 1
w 40 -39 -23 0
w 41 40 24 1
w 41 40 -24 1
w 41 -40 24 0
w 41 -40 -24 1
w 42 41 25 0
w 42 41 -25 1
w 42 -41 25 0
w 42 -41 -25 0
w 43 42 26 1
w 43 42 -26 1
w 43 -42 26 0
w 43 -42 -26 0
w 44 43 27 1
w 44 43 -27 0
w 44 -43 27 1
w 44 -43 -27 1
w 45 44 28 0.393789
w 45 44 -28 0.0711744
w 45 -44 28 0.111968
w 45 -44 -28 0.714003
w 46 45 29 1
w 46 45 -29 1
w 46 -45 29 0
w 46 -45 -29 1
w 47 46 30 1
w 47 46 -30 0
w 47 -46 30 0
w 47 -46 -30 1
w 48 47 31 0
w 48 47 -31 0
w 48 -47 31 1
w 48 -47 -31 0
w 49 48 32 0
w 49 48 -32 1
w 49 -48 32 1
w 49 -48 -32 1
w 50 49 33 1
w 50 49 -33 0
w 50 -49 33 0
w 50 -49 -33 0
w 51 50 34 0
w 51 50 -34 0
w 51 -50 34 0
w 51 -50 -34 1
w 52 35 0.459939
w 52 -35 0.99452
w 53 52 36 0
w 53 52 -36 1
w 53 -52 36 1
w 53 -52 -36 1
w 54 53 37 1
w 54 53 -37 1
w 54 -53 37 0
w 54 -53 -37 0
w 55 54 38 0.915191
w 55 54 -38 0.423022
w 55 -54 38 0.30742
w 55 -54 -38 0.581289
w 56 55 39 1
w 56 55 -39 1
w 56 -55 39 0
w 56 -55 -39 1
w 57 56 40 0
w 57 56 -40 1
w 57 -56 40 1
w 57 -56 -40 1
w 58 57 41 1
w 58 57 -41 0
w 58 -57 41 1
w 58 -57 -41 1
w 59 58 42 0
w 59 58 -42 0
w 59 -58 42 0
w 59 -58 -42 1
w 60 59 43 1
w 60 59 -43 0
w 60 -59 43 0
w 60 -59 -43 0
w 61 60 44 1
w 61 60 -44 0
w 61 -60 44 0
w 61 -60 -44 0
w 62 61 45 1
w 62 61 -45 1
w 62 -61 45 0
w 62 -61 -45 0
w 63 62 46 0
w 63 62 -46 1
w 63 -62 46 0
w 63 -62 -46 1
w 64 63 47 0.604809
w 64 63 -47 0.723225
w 64 -63 47 0.544792
w 64 -63 -47 0.601197
w 65 64 48 0.422264
w 65 64 -48 0.0283208
w 65 -64 48 0.492786
w 65 -64 -48 0.400435
w 66 65 49 1
w 66 65 -49 1
w 66 -65 49 0
w 66 -65 -49 0
w 67 66 50 0.683262
w 67 66 -50 0.743532
w 67 -66 50 0.00556638
w 67 -66 -50 0.138971
w 68 67 51 0
w 68 67 -51 0
w 68 -67 51 1
w 68 -67 -51 0
w 69 52 0
w 69 -52 1
w 70 69 53 0
w 70 69 -53 0
w 70 -69 53 0
w 70 -69 -53 1
w 71 70 54 0
w 71 70 -54 1
w 71 -70 54 0
w 71 -70 -54 1
w 72 71 55 1
w 72 71 -55 0
w 72 -71 55 0
w 72 -71 -55 1
w 73 72 56 0.190408
w 73 72 -56 0.642333
w 73 -72 56 0.761469
w 73 -72 -56 0.0994114
w 74 73 57 1
w 74 73 -57 0
w 74 -73 57 1
w 74 -73 -57 0
w 75 74 58 1
w 75 74 -58 1
w 75 -74 58 0
w 75 -74 -58 0
w 76 75 59 0.114417
w 76 75 -59 0.0160765
w 76 -75 59 0.514039
w 76 -75 -59 0.149758
w 77 76 60 0
w 77 76 -60 0
w 77 -76 60 0
w 77 -76 -60 1
w 78 77 61 0
w 78 77 -61 1
w 78 -77 61 0
w 78 -77 -61 1
w 79 78 62 0.435649
w 79 78 -62 0.299789
w 79 -78 62 0.600628
w 79 -78 -62 0.53506
w 80 79 63 1
w 80 79 -63 0
w 80 -79 63 0
w 80 -79 -63 0
w 81 80 64 1
w 81 80 -64 1
w 81 -80 64 0
w 81 -80 -64 0
w 82 81 65 0
w 82 81 -65 1
w 82 -81 65 1
w 82 -81 -65 1
w 83 82 66 0.827403
w 83 82 -66 0.237101
w 83 -82 66 0.718515
w 83 -82 -66 0.479534
w 84 83 67 0.00880837
w 84 83 -67 0.0296308
w 84 -83 67 0.743721
w 84 -83 -67 0.254049
w 85 84 68 1
w 85 84 -68 1
w 85 -84 68 0
w 85 -84 -68 0
w 86 69 1
w 86 -69 0
w 87 86 70 0
w 87 86 -70 1
w 87 -86 70 1
w 87 -86 -70 1
w 88 87 71 0.276276
w 88 87 -71 0.182189
w 88 -87 71 0.391262
w 88 -87 -71 0.455294
w 89 88 72 1
w 89 88 -72 0
w 89 -88 72 1
w 89 -88 -72 0
w 90 89 73 0
w 90 89 -73 1
w 90 -89 73 1
w 90 -89 -73 1
w 91 90 74 0.642711
w 91 90 -74 0.525497
w 91 -90 74 0.459833
w 91 -90 -74 0.225591
w 92 91 75 0
w 92 91 -75 1
w 92 -91 75 0
w 92 -91 -75 1
w 93 92 76 1
w 93 92 -76 0
w 93 -92 76 0
w 93 -92 -76 0
w 94 93 77 1
w 94 93 -77 0
w 94 -93 77 1
w 94 -93 -77 1
w 95 94 78 0
w 95 94 -78 1
w 95 -94 78 1
w 95 -94 -78 0
w 96 95 79 0
w 96 95 -79 1
w 96 -95 79 0
w 96 -95 -79 1
w 97 96 80 0
w 97 96 -80 0
w 97 -96 80 0
w 97 -96 -80 1
w 98 97 81 0
w 98 97 -81 0
w 98 -97 81 0
w 98 -97 -81 1
w 99 98 82 0.887426
w 99 98 -82 0.0721005
w 99 -98 82 0.806007
w 99 -98 -82 0.403849
w 100 99 83 1
w 100 99 -83 1
w 100 -99 83 1
w 100 -99 -83 0
w 101 100 84 1
w 101 100 -84 0
w 101 -100 84 0
w 101 -100 -84 1
w 102 101 85 1
w 102 101 -85 1
w 102 -101 85 0
w 102 -101 -85 0
w 103 86 0
w 103 -86 1
w 104 103 87 0
w 104 103 -87 1
w 104 -103 87 1
w 104 -103 -87 0
w 105 104 88 1
w 105 104 -88 0
w 105 -104 88 1
w 105 -104 -88 1
w 106 105 89 0
w 106 105 -89 0
w 106 -105 89 1
w 106 -105 -89 0
w 107 106 90 1
w 107 106 -90 1
w 107 -106 90 0
w 107 -106 -90 1
w 108 107 91 0
w 108 107 -91 1
w 108 -107 91 0
w 108 -107 -91 1
w 109 108 92 1
w 109 108 -92 1
w 109 -108 92 1
w 109 -108 -92 0
w 110 109 93 0
w 110 109 -93 0
w 110 -109 93 1
w 110 -109 -93 0
w 111 110 94 0
w 111 110 -94 1
w 111 -110 94 0
w 111 -110 -94 1
w 112 111 95 0
w 112 111 -95 1
w 112 -111 95 0
w 112 -111 -95 0
w 113 112 96 0.218783
w 113 112 -96 0.716062
w 113 -112 96 0.552172
w 113 -112 -96 0.452649
w 114 113 97 1
w 114 113 -97 0
w 114 -113 97 1
w 114 -113 -97 0
w 115 114 98 0.458843
w 115 114 -98 0.697082
w 115 -114 98 0.587281
w 115 -114 -98 0.479335
w 116 115 99 0.370666
w 116 115 -99 0.293005
w 116 -115 99 0.174492
w 116 -115 -99 0.36347
w 117 116 100 0
w 117 116 -100 1
w 117 -116 100 1
w 117 -116 -100 1
w 118 117 101 0
w 118 117 -101 1
w 118 -117 101 1
w 118 -117 -101 0
w 119 118 102 0.951975
w 119 118 -102 0.441584
w 119 -118 102 0.540471
w 119 -118 -102 0.404624
w 120 103 0
w 120 -103 1
w 121 120 104 0
w 121 120 -104 0
w 121 -120 104 1
w 121 -120 -104 0
w 122 121 105 0
w 122 121 -105 0
w 122 -121 105 1
w 122 -121 -105 1
w 123 122 106 1
w 123 122 -106 0
w 123 -122 106 1
w 123 -122 -106 0
w 124 123 107 1
w 124 123 -107 1
w 124 -123 107 1
w 124 -123 -107 0
w 125 124 108 1
w 125 124 -108 1
w 125 -124 108 1
w 125 -124 -108 0
w 126 125 109 1
w 126 125 -109 1
w 126 -125 109 0
w 126 -125 -109 0
w 127 126 110 0
w 127 126 -110 0
w 127 -126 110 1
w 127 -126 -110 1
w 128 127 111 0.886647
w 128 127 -111 0.174732
w 128 -127 111 0.827885
w 128 -127 -111 0.348588
w 129 128 112 0
w 129 128 -112 0
w 129 -128 112 0
w 129 -128 -112 1
w 130 129 113 1
w 130 129 -113 0
w 130 -129 113 0
w 130 -129 -113 0
w 131 130 114 1
w 131 130 -114 1
w 131 -130 114 0
w 131 -130 -114 1
w 132 131 115 0
w 132 131 -115 1
w 132 -131 115 1
w 132 -131 -115 0
w 133 132 116 0.516921
w 133 132 -116 0.549366
w 133 -132 116 0.276508
w 133 -132 -116 0.536107
w 134 133 117 1
w 134 133 -117 1
w 134 -133 117 0
w 134 -133 -117 0
w 135 134 118 0
w 135 134 -118 1
w 135 -134 118 1
w 135 -134 -118 1
w 136 135 119 0
w 136 135 -119 0
w 136 -135 119 1
w 136 -135 -119 1
w 137 120 1
w 137 -120 0
w 138 137 121 0
w 138 137 -121 0
w 138 -137 121 0
w 138 -137 -121 1
w 139 138 122 0
w 139 138 -122 0
w 139 -138 122 1
w 139 -138 -122 1
w 140 139 123 0.522318
w 140 139 -123 0.264389
w 140 -139 123 0.4438
w 140 -139 -123 0.0572782
w 141 140 124 0
w 141 140 -124 0
w 141 -140 124 1
w 141 -140 -124 1
w 142 141 125 0
w 142 141 -125 1
w 142 -141 125 0
w 142 -141 -125 1
w 143 142 126 0
w 143 142 -126 1
w 143 -142 126 0
w 143 -142 -126 0
w 144 143 127 1
w 144 143 -127 0
w 144 -143 127 0
w 144 -143 -127 1
w 145 144 128 0
w 145 144 -128 1
w 145 -144 128 0
w 145 -144 -128 1
w 146 145 129 0
w 146 145 -129 1
w 146 -145 129 0
w 146 -145 -129 0
w 147 146 130 0
w 147 146 -130 0
w 147 -146 130 0
w 147 -146 -130 1
w 148 147 131 0
w 148 147 -131 1
w 148 -147 131 1
w 148 -147 -131 0
w 149 148 132 0
w 149 148 -132 0
w 149 -148 132 0
w 149 -148 -132 1
w 150 149 133 0
w 150 149 -133 0
w 150 -149 133 1
w 150 -149 -133 0
w 151 150 134 1
w 151 150 -134 0
w 151 -150 134 1
w 151 -150 -134 1
w 152 151 135 1
w 152 151 -135 1
w 152 -151 135 1
w 152 -151 -135 0
w 153 152 136 0
w 153 152 -136 0
w 153 -152 136 0
w 153 -152 -136 1
w 154 137 0.755269
w 154 -137 0.00524606
w 155 154 138 1
w 155 154 -138 0
w 155 -154 138 1
w 155 -154 -138 0
w 156 155 139 0
w 156 155 -139 1
w 156 -155 139 0
w 156 -155 -139 0
w 157 156 140 0.831558
w 157 156 -140 0.432141
w 157 -156 140 0.13912
w 157 -156 -140 0.37329
w 158 157 141 0
w 158 157 -141 0
w 158 -157 141 0
w 158 -157 -141 1
w 159 158 142 0
w 159 158 -142 1
w 159 -158 142 0
w 159 -158 -142 0
w 160 159 143 0.998157
w 160 159 -143 0.262972
w 160 -159 143 0.808769
w 160 -159 -143 0.753426
w 161 160 144 0
w 161 160 -144 1
w 161 -160 144 0
w 161 -160 -144 1
w 162 161 145 0
w 162 161 -145 0
w 162 -161 145 1
w 162 -161 -145 0
w 163 162 146 0
w 163 162 -146 0
w 163 -162 146 0
w 163 -162 -146 1
w 164 163 147 0
w 164 163 -147 1
w 164 -163 147 0
w 164 -163 -147 0
w 165 164 148 0
w 165 164 -148 1
w 165 -164 148 1
w 165 -164 -148 0
w 166 165 149 1
w 166 165 -149 1
w 166 -165 149 0
w 166 -165 -149 1
w 167 166 150 0.747666
w 167 166 -150 0.113768
w 167 -166 150 0.568151
w 167 -166 -150 0.439044
w 168 167 151 0.327757
w 168 167 -151 0.966612
w 168 -167 151 0.307932
w 168 -167 -151 0.873028
w 169 168 152 0
w 169 168 -152 1
w 169 -168 152 1
w 169 -168 -152 1
w 170 169 153 0
w 170 169 -153 0
w 170 -169 153 1
w 170 -169 -153 0
w 171 154 0.955467
w 171 -154 0.57309
w 172 171 155 0.0386345
w 172 171 -155 0.713712
w 172 -171 155 0.787548
w 172 -171 -155 0.384774
w 173 172 156 1
w 173 172 -156 0
w 173 -172 156 1
w 173 -172 -156 1
w 174 173 157 1
w 174 173 -157 0
w 174 -173 157 0
w 174 -173 -157 0
w 175 174 158 1
w 175 174 -158 1
w 175 -174 158 0
w 175 -174 -158 1
w 176 175 159 0
w 176 175 -159 0
w 176 -175 159 1
w 176 -175 -159 0
w 177 176 160 0
w 177 176 -160 0
w 177 -176 160 0
w 177 -176 -160 1
w 178 177 161 1
w 178 177 -161 0
w 178 -177 161 0
w 178 -177 -161 1
w 179 178 162 0.663875
w 179 178 -162 0.624357
w 179 -178 162 0.959034
w 179 -178 -162 0.279033
w 180 179 163 0.0719331
w 180 179 -163 0.462342
w 180 -179 163 0.528709
w 180 -179 -163 0.000641886
w 181 180 164 0.167019
w 181 180 -164 0.237283
w 181 -180 164 0.357501
w 181 -180 -164 0.19343
w 182 181 165 0
w 182 181 -165 0
w 182 -181 165 0
w 182 -181 -165 1
w 183 182 166 1
w 183 182 -166 0
w 183 -182 166 0
w 183 -182 -166 1
w 184 183 167 0.616579
w 184 183 -167 0.773093
w 184 -183 167 0.553114
w 184 -183 -167 0.61735
w 185 184 168 0.513017
w 185 184 -168 0.281225
w 185 -184 168 0.53682
w 185 -184 -168 0.472052
w 186 185 169 0
w 186 185 -169 1
w 186 -185 169 1
w 186 -185 -169 1
w 187 186 170 0
w 187 186 -170 1
w 187 -186 170 1
w 187 -186 -170 1
w 188 171 0.945541
w 188 -171 0.451541
w 189 188 172 0
w 189 188 -172 1
w 189 -188 172 0
w 189 -188 -172 0
w 190 189 173 1
w 190 189 -173 0
w 190 -189 173 1
w 190 -189 -173 0
w 191 190 174 0.630541
w 191 190 -174 0.20962
w 191 -190 174 0.291605
w 191 -190 -174 0.911766
w 192 191 175 1
w 192 191 -175 0
w 192 -191 175 1
w 192 -191 -175 0
w 193 192 176 1
w 193 192 -176 0
w 193 -192 176 1
w 193 -192 -176 0
w 194 193 177 0
w 194 193 -177 0
w 194 -193 177 0
w 194 -193 -177 1
w 195 194 178 0.711433
w 195 194 -178 0.595678
w 195 -194 178 0.953996
w 195 -194 -178 0.814226
w 196 195 179 0.350608
w 196 195 -179 0.33829
w 196 -195 179 0.0686407
w 196 -195 -179 0.3638
w 197 196 180 0
w 197 196 -180 1
w 197 -196 180 0
w 197 -196 -180 1
w 198 197 181 0.591507
w 198 197 -181 0.902489
w 198 -197 181 0.37813
w 198 -197 -181 0.731779
w 199 198 182 1
w 199 198 -182 0
w 199 -198 182 1
w 199 -198 -182 0
w 200 199 183 0.696576
w 200 199 -183 0.207517
w 200 -199 183 0.382326
w 200 -199 -183 0.218198
w 201 200 184 0.269228
w 201 200 -184 0.929631
w 201 -200 184 0.592871
w 201 -200 -184 0.223224
w 202 201 185 0
w 202 201 -185 1
w 202 -201 185 1
w 202 -201 -185 0
w 203 202 186 0.717594
w 203 202 -186 0.351907
w 203 -202 186 0.931973
w 203 -202 -186 0.562661
w 204 203 187 0
w 204 203 -187 0
w 204 -203 187 0
w 204 -203 -187 1
w 205 188 0.603359
w 205 -188 0.0889628
w 206 205 189 0
w 206 205 -189 0
w 206 -205 189 1
w 206 -205 -189 0
w 207 206 190 0
w 207 206 -190 1
w 207 -206 190 1
w 207 -206 -190 0
w 208 207 191 1
w 208 207 -191 0
w 208 -207 191 0
w 208 -207 -191 0
w 209 208 192 1
w 209 208 -192 0
w 209 -208 192 1
w 209 -208 -192 1
w 210 209 193 0.616423
w 210 209 -193 0.0332895
w 210 -209 193 0.783799
w 210 -209 -193 0.770591
w 211 210 194 0
w 211 210 -194 0
w 211 -210 194 0
w 211 -210 -194 1
w 212 211 195 0
w 212 211 -195 1
w 212 -211 195 1
w 212 -211 -195 0
w 213 212 196 1
w 213 212 -196 0
w 213 -212 196 1
w 213 -212 -196 0
w 214 213 197 1
w 214 213 -197 0
w 214 -213 197 0
w 214 -213 -197 0
w 215 214 198 0.738846
w 215 214 -198 0.984762
w 215 -214 198 0.845612
w 215 -214 -198 0.792608
w 216 215 199 1
w 216 215 -199 1
w 216 -215 199 1
w 216 -215 -199 0
w 217 216 200 0
w 217 216 -200 1
w 217 -216 200 1
w 217 -216 -200 0
w 218 217 201 1
w 218 217 -201 0
w 218 -217 201 1
w 218 -217 -201 0
w 219 218 202 0.406606
w 219 218 -202 0.112235
w 219 -218 202 0.409095
w 219 -218 -202 0.264836
w 220 219 203 1
w 220 219 -203 0
w 220 -219 203 0
w 220 -219 -203 1
w 221 220 204 0
w 221 220 -204 0
w 221 -220 204 1
w 221 -220 -204 1
w 222 205 0
w 222 -205 1
w 223 222 206 1
w 223 222 -206 1
w 223 -222 206 1
w 223 -222 -206 0
w 224 223 207 0
w 224 223 -207 1
w 224 -223 207 0
w 224 -223 -207 0
w 225 224 208 0.610076
w 225 224 -208 0.227764
w 225 -224 208 0.727132
w 225 -224 -208 0.0166818
w 226 225 209 1
w 226 225 -209 0
w 226 -225 209 0
w 226 -225 -209 0
w 227 226 210 0
w 227 226 -210 1
w 227 -226 210 1
w 227 -226 -210 0
w 228 227 211 0
w 228 227 -211 1
w 228 -227 211 1
w 228 -227 -211 0
w 229 228 212 0
w 229 228 -212 0
w 229 -228 212 1
w 229 -228 -212 1
w 230 229 213 1
w 230 229 -213 1
w 230 -229 213 0
w 230 -229 -213 1
w 231 230 214 0.319822
w 231 230 -214 0.0903375
w 231 -230 214 0.0614551
w 231 -230 -214 0.0469549
w 232 231 215 1
w 232 231 -215 0
w 232 -231 215 1
w 232 -231 -215 1
w 233 232 216 0.0430483
w 233 232 -216 0.93432
w 233 -232 216 0.531584
w 233 -232 -216 0.864671
w 234 233 217 0
w 234 233 -217 1
w 234 -233 217 1
w 234 -233 -217 1
w 235 234 218 1
w 235 234 -218 0
w 235 -234 218 0
w 235 -234 -218 0
w 236 235 219 0
w 236 235 -219 1
w 236 -235 219 0
w 236 -235 -219 0
w 237 236 220 0
w 237 236 -220 0
w 237 -236 220 1
w 237 -236 -220 1
w 238 237 221 0
w 238 237 -221 0
w 238 -237 221 1
w 238 -237 -221 0
w 239 222 0
w 239 -222 1
w 240 239 223 0
w 240 239 -223 1
w 240 -239 223 1
w 240 -239 -223 0
w 241 240 224 1
w 241 240 -224 0
w 241 -240 224 0
w 241 -240 -224 0
w 242 241 225 0.560823
w 242 241 -225 0.65817
w 242 -241 225 0.222662
w 242 -241 -225 0.0635323
w 243 242 226 1
w 243 242 -226 1
w 243 -242 226 1
w 243 -242 -226 0
w 244 243 227 0
w 244 243 -227 0
w 244 -243 227 1
w 244 -243 -227 0
w 245 244 228 0.892733
w 245 244 -228 0.0572002
w 245 -244 228 0.809597
w 245 -244 -228 0.278987
w 246 245 229 0.65807
w 246 245 -229 0.380045
w 246 -245 229 0.591894
w 246 -245 -229 0.344712
w 247 246 230 0.032753
w 247 246 -230 0.522208
w 247 -246 230 0.634511
w 247 -246 -230 0.950989
w 248 247 231 0
w 248 247 -231 0
w 248 -247 231 1
w 248 -247 -231 0
w 249 248 232 0
w 249 248 -232 1
w 249 -248 232 0
w 249 -248 -232 1
w 250 249 233 0
w 250 249 -233 0
w 250 -249 233 0
w 250 -249 -233 1
w 251 250 234 0
w 251 250 -234 1
w 251 -250 234 1
w 251 -250 -234 1
w 252 251 235 0
w 252 251 -235 0
w 252 -251 235 1
w 252 -251 -235 0
w 253 252 236 1
w 253 252 -236 1
w 253 -252 236 1
w 253 -252 -236 0
w 254 253 237 0.174358
w 254 253 -237 0.388294
w 254 -253 237 0.992033
w 254 -253 -237 0.320922
w 255 254 238 1
w 255 254 -238 0
w 255 -254 238 0
w 255 -254 -238 1
w 256 239 0
w 256 -239 1
w 257 256 240 1
w 257 256 -240 0
w 257 -256 240 1
w 257 -256 -240 0
w 258 257 241 0
w 258 257 -241 1
w 258 -257 241 1
w 258 -257 -241 0
w 259 258 242 0
w 259 258 -242 1
w 259 -258 242 0
w 259 -258 -242 0
w 260 259 243 1
w 260 259 -243 1
w 260 -259 243 1
w 260 -259 -243 0
w 261 260 244 1
w 261 260 -244 0
w 261 -260 244 1
w 261 -260 -244 0
w 262 261 245 0.00389116
w 262 261 -245 0.964771
w 262 -261 245 0.0179217
w 262 -261 -245 0.592345
w 263 262 246 0.744847
w 263 262 -246 0.720361
w 263 -262 246 0.841166
w 263 -262 -246 0.605786
w 264 263 247 1
w 264 263 -247 0
w 264 -263 247 1
w 264 -263 -247 1
w 265 264 248 1
w 265 264 -248 1
w 265 -264 248 1
w 265 -264 -248 0
w 266 265 249 0.586906
w 266 265 -249 0.31134
w 266 -265 249 0.342285
w 266 -265 -249 0.142562
w 267 266 250 0
w 267 266 -250 1
w 267 -266 250 1
w 267 -266 -250 0
w 268 267 251 0
w 268 267 -251 1
w 268 -267 251 1
w 268 -267 -251 1
w 269 268 252 1
w 269 268 -252 0
w 269 -268 252 1
w 269 -268 -252 1
w 270 269 253 1
w 270 269 -253 0
w 270 -269 253 0
w 270 -269 -253 1
w 271 270 254 1
w 271 270 -254 0
w 271 -270 254 1
w 271 -270 -254 0
w 272 271 255 0
w 272 271 -255 1
w 272 -271 255 0
w 272 -271 -255 0
w 273 256 0
w 273 -256 1
w 274 273 257 0.66979
w 274 273 -257 0.409041
w 274 -273 257 0.540863
w 274 -273 -257 0.877854
w 275 274 258 1
w 275 274 -258 1
w 275 -274 258 0
w 275 -274 -258 0
w 276 275 259 0
w 276 275 -259 1
w 276 -275 259 1
w 276 -275 -259 1
w 277 276 260 1
w 277 276 -260 1
w 277 -276 260 0
w 277 -276 -260 1
w 278 277 261 1
w 278 277 -261 0
w 278 -277 261 1
w 278 -277 -261 1
w 279 278 262 1
w 279 278 -262 1
w 279 -278 262 0
w 279 -278 -262 1
w 280 279 263 1
w 280 279 -263 0
w 280 -279 263 1
w 280 -279 -263 1
w 281 280 264 1
w 281 280 -264 0
w 281 -280 264 0
w 281 -280 -264 0
w 282 281 265 0.804955
w 282 281 -265 0.588692
w 282 -281 265 0.0170463
w 282 -281 -265 0.29407
w 283 282 266 0.490399
w 283 282 -266 0.380234
w 283 -282 266 0.466004
w 283 -282 -266 0.753206
w 284 283 267 0.640262
w 284 283 -267 0.711843
w 284 -283 267 0.479513
w 284 -283 -267 0.682842
w 285 284 268 0
w 285 284 -268 0
w 285 -284 268 0
w 285 -284 -268 1
w 286 285 269 0
w 286 285 -269 0
w 286 -285 269 1
w 286 -285 -269 1
w 287 286 270 0
w 287 286 -270 1
w 287 -286 270 1
w 287 -286 -270 0
w 288 287 271 1
w 288 287 -271 0
w 288 -287 271 0
w 288 -287 -271 1
w 289 288 272 0
w 289 288 -272 1
w 289 -288 272 1
w 289 -288 -272 0